p cnf 928
-12 -292
-13 -295
-14 -298
-15 -301
-16 -304
-17 -307
-18 -310
-19 -313
-20 -316
-21 -319
-22 -322
-23 323
-24 324
-25 325
-26 326
-27 327
-28 328
-29 329
-30 330
-31 331
-32 332
-33 -13
-33 -14
13 14 33
-34 -15
-34 -16
15 16 34
-35 -17
-35 -18
17 18 35
-36 -19
-36 -20
19 20 36
-37 -21
-37 -22
21 22 37
-38 -23
-38 -24
23 24 38
-39 -25
-39 -26
25 26 39
-40 -27
-40 -28
27 28 40
-41 -29
-41 -30
29 30 41
-42 -31
-42 -32
31 32 42
-43 33
-43 34
-33 -34 43
-44 35
-44 36
-35 -36 44
-45 37
-45 38
-37 -38 45
-46 39
-46 40
-39 -40 46
-47 41
-47 42
-41 -42 47
-48 43
-48 44
-43 -44 48
-49 45
-49 46
-45 -46 49
-50 48
-50 49
-48 -49 50
-51 47
-51 50
-47 -50 51
-52 -12
-52 13
12 -13 52
-53 12
-53 -13
-12 13 53
-54 -52
-54 -53
52 53 54
-55 12
-55 13
-12 -13 55
-56 -12
-56 -54
12 54 56
-57 12
-57 54
-12 -54 57
-58 -56
-58 -57
56 57 58
-59 12
-59 -54
-12 54 59
-60 -55
-60 -59
55 59 60
-61 -13
-61 14
13 -14 61
-62 13
-62 -14
-13 14 62
-63 -61
-63 -62
61 62 63
-64 13
-64 14
-13 -14 64
-65 60
-65 -63
-60 63 65
-66 -60
-66 63
60 -63 66
-67 -65
-67 -66
65 66 67
-68 -60
-68 -63
60 63 68
-69 -64
-69 -68
64 68 69
-70 -14
-70 15
14 -15 70
-71 14
-71 -15
-14 15 71
-72 -70
-72 -71
70 71 72
-73 14
-73 15
-14 -15 73
-74 69
-74 -72
-69 72 74
-75 -69
-75 72
69 -72 75
-76 -74
-76 -75
74 75 76
-77 -69
-77 -72
69 72 77
-78 -73
-78 -77
73 77 78
-79 -15
-79 16
15 -16 79
-80 15
-80 -16
-15 16 80
-81 -79
-81 -80
79 80 81
-82 15
-82 16
-15 -16 82
-83 78
-83 -81
-78 81 83
-84 -78
-84 81
78 -81 84
-85 -83
-85 -84
83 84 85
-86 -78
-86 -81
78 81 86
-87 -82
-87 -86
82 86 87
-88 -16
-88 17
16 -17 88
-89 16
-89 -17
-16 17 89
-90 -88
-90 -89
88 89 90
-91 16
-91 17
-16 -17 91
-92 87
-92 -90
-87 90 92
-93 -87
-93 90
87 -90 93
-94 -92
-94 -93
92 93 94
-95 -87
-95 -90
87 90 95
-96 -91
-96 -95
91 95 96
-97 -17
-97 18
17 -18 97
-98 17
-98 -18
-17 18 98
-99 -97
-99 -98
97 98 99
-100 17
-100 18
-17 -18 100
-101 96
-101 -99
-96 99 101
-102 -96
-102 99
96 -99 102
-103 -101
-103 -102
101 102 103
-104 -96
-104 -99
96 99 104
-105 -100
-105 -104
100 104 105
-106 -18
-106 19
18 -19 106
-107 18
-107 -19
-18 19 107
-108 -106
-108 -107
106 107 108
-109 18
-109 19
-18 -19 109
-110 105
-110 -108
-105 108 110
-111 -105
-111 108
105 -108 111
-112 -110
-112 -111
110 111 112
-113 -105
-113 -108
105 108 113
-114 -109
-114 -113
109 113 114
-115 -19
-115 20
19 -20 115
-116 19
-116 -20
-19 20 116
-117 -115
-117 -116
115 116 117
-118 19
-118 20
-19 -20 118
-119 114
-119 -117
-114 117 119
-120 -114
-120 117
114 -117 120
-121 -119
-121 -120
119 120 121
-122 -114
-122 -117
114 117 122
-123 -118
-123 -122
118 122 123
-124 -20
-124 21
20 -21 124
-125 20
-125 -21
-20 21 125
-126 -124
-126 -125
124 125 126
-127 20
-127 21
-20 -21 127
-128 123
-128 -126
-123 126 128
-129 -123
-129 126
123 -126 129
-130 -128
-130 -129
128 129 130
-131 -123
-131 -126
123 126 131
-132 -127
-132 -131
127 131 132
-133 -21
-133 22
21 -22 133
-134 21
-134 -22
-21 22 134
-135 -133
-135 -134
133 134 135
-136 21
-136 22
-21 -22 136
-137 132
-137 -135
-132 135 137
-138 -132
-138 135
132 -135 138
-139 -137
-139 -138
137 138 139
-140 -132
-140 -135
132 135 140
-141 -136
-141 -140
136 140 141
-142 -22
-142 23
22 -23 142
-143 22
-143 -23
-22 23 143
-144 -142
-144 -143
142 143 144
-145 22
-145 23
-22 -23 145
-146 141
-146 -144
-141 144 146
-147 -141
-147 144
141 -144 147
-148 -146
-148 -147
146 147 148
-149 -141
-149 -144
141 144 149
-150 -145
-150 -149
145 149 150
-151 -23
-151 24
23 -24 151
-152 23
-152 -24
-23 24 152
-153 -151
-153 -152
151 152 153
-154 23
-154 24
-23 -24 154
-155 150
-155 -153
-150 153 155
-156 -150
-156 153
150 -153 156
-157 -155
-157 -156
155 156 157
-158 -150
-158 -153
150 153 158
-159 -154
-159 -158
154 158 159
-160 -24
-160 25
24 -25 160
-161 24
-161 -25
-24 25 161
-162 -160
-162 -161
160 161 162
-163 24
-163 25
-24 -25 163
-164 159
-164 -162
-159 162 164
-165 -159
-165 162
159 -162 165
-166 -164
-166 -165
164 165 166
-167 -159
-167 -162
159 162 167
-168 -163
-168 -167
163 167 168
-169 -25
-169 26
25 -26 169
-170 25
-170 -26
-25 26 170
-171 -169
-171 -170
169 170 171
-172 25
-172 26
-25 -26 172
-173 168
-173 -171
-168 171 173
-174 -168
-174 171
168 -171 174
-175 -173
-175 -174
173 174 175
-176 -168
-176 -171
168 171 176
-177 -172
-177 -176
172 176 177
-178 -26
-178 27
26 -27 178
-179 26
-179 -27
-26 27 179
-180 -178
-180 -179
178 179 180
-181 26
-181 27
-26 -27 181
-182 177
-182 -180
-177 180 182
-183 -177
-183 180
177 -180 183
-184 -182
-184 -183
182 183 184
-185 -177
-185 -180
177 180 185
-186 -181
-186 -185
181 185 186
-187 -27
-187 28
27 -28 187
-188 27
-188 -28
-27 28 188
-189 -187
-189 -188
187 188 189
-190 27
-190 28
-27 -28 190
-191 186
-191 -189
-186 189 191
-192 -186
-192 189
186 -189 192
-193 -191
-193 -192
191 192 193
-194 -186
-194 -189
186 189 194
-195 -190
-195 -194
190 194 195
-196 -28
-196 29
28 -29 196
-197 28
-197 -29
-28 29 197
-198 -196
-198 -197
196 197 198
-199 28
-199 29
-28 -29 199
-200 195
-200 -198
-195 198 200
-201 -195
-201 198
195 -198 201
-202 -200
-202 -201
200 201 202
-203 -195
-203 -198
195 198 203
-204 -199
-204 -203
199 203 204
-205 -29
-205 30
29 -30 205
-206 29
-206 -30
-29 30 206
-207 -205
-207 -206
205 206 207
-208 29
-208 30
-29 -30 208
-209 204
-209 -207
-204 207 209
-210 -204
-210 207
204 -207 210
-211 -209
-211 -210
209 210 211
-212 -204
-212 -207
204 207 212
-213 -208
-213 -212
208 212 213
-214 -30
-214 31
30 -31 214
-215 30
-215 -31
-30 31 215
-216 -214
-216 -215
214 215 216
-217 30
-217 31
-30 -31 217
-218 213
-218 -216
-213 216 218
-219 -213
-219 216
213 -216 219
-220 -218
-220 -219
218 219 220
-221 -213
-221 -216
213 216 221
-222 -217
-222 -221
217 221 222
-223 -31
-223 32
31 -32 223
-224 31
-224 -32
-31 32 224
-225 -223
-225 -224
223 224 225
-226 31
-226 32
-31 -32 226
-227 222
-227 -225
-222 225 227
-228 -222
-228 225
222 -225 228
-229 -227
-229 -228
227 228 229
-230 -222
-230 -225
222 225 230
-231 -226
-231 -230
226 230 231
-232 12
-232 -58
-12 58 232
-233 -12
-233 14
12 -14 233
-234 -232
-234 -233
232 233 234
-235 12
-235 -67
-12 67 235
-236 -12
-236 15
12 -15 236
-237 -235
-237 -236
235 236 237
-238 12
-238 -76
-12 76 238
-239 -12
-239 16
12 -16 239
-240 -238
-240 -239
238 239 240
-241 12
-241 -85
-12 85 241
-242 -12
-242 17
12 -17 242
-243 -241
-243 -242
241 242 243
-244 12
-244 -94
-12 94 244
-245 -12
-245 18
12 -18 245
-246 -244
-246 -245
244 245 246
-247 12
-247 -103
-12 103 247
-248 -12
-248 19
12 -19 248
-249 -247
-249 -248
247 248 249
-250 12
-250 -112
-12 112 250
-251 -12
-251 20
12 -20 251
-252 -250
-252 -251
250 251 252
-253 12
-253 -121
-12 121 253
-254 -12
-254 21
12 -21 254
-255 -253
-255 -254
253 254 255
-256 12
-256 -130
-12 130 256
-257 -12
-257 22
12 -22 257
-258 -256
-258 -257
256 257 258
-259 12
-259 -139
-12 139 259
-260 -12
-260 23
12 -23 260
-261 -259
-261 -260
259 260 261
-262 12
-262 -148
-12 148 262
-263 -12
-263 24
12 -24 263
-264 -262
-264 -263
262 263 264
-265 12
-265 -157
-12 157 265
-266 -12
-266 25
12 -25 266
-267 -265
-267 -266
265 266 267
-268 12
-268 -166
-12 166 268
-269 -12
-269 26
12 -26 269
-270 -268
-270 -269
268 269 270
-271 12
-271 -175
-12 175 271
-272 -12
-272 27
12 -27 272
-273 -271
-273 -272
271 272 273
-274 12
-274 -184
-12 184 274
-275 -12
-275 28
12 -28 275
-276 -274
-276 -275
274 275 276
-277 12
-277 -193
-12 193 277
-278 -12
-278 29
12 -29 278
-279 -277
-279 -278
277 278 279
-280 12
-280 -202
-12 202 280
-281 -12
-281 30
12 -30 281
-282 -280
-282 -281
280 281 282
-283 12
-283 -211
-12 211 283
-284 -12
-284 31
12 -31 284
-285 -283
-285 -284
283 284 285
-286 12
-286 -220
-12 220 286
-287 -12
-287 32
12 -32 287
-288 -286
-288 -287
286 287 288
-289 12
-289 -229
-12 229 289
-290 1
-290 51
-1 -51 290
-291 -51
-291 52
51 -52 291
-292 -290
-292 -291
290 291 292
-293 2
-293 51
-2 -51 293
-294 -51
-294 -234
51 234 294
-295 -293
-295 -294
293 294 295
-296 3
-296 51
-3 -51 296
-297 -51
-297 -237
51 237 297
-298 -296
-298 -297
296 297 298
-299 4
-299 51
-4 -51 299
-300 -51
-300 -240
51 240 300
-301 -299
-301 -300
299 300 301
-302 5
-302 51
-5 -51 302
-303 -51
-303 -243
51 243 303
-304 -302
-304 -303
302 303 304
-305 6
-305 51
-6 -51 305
-306 -51
-306 -246
51 246 306
-307 -305
-307 -306
305 306 307
-308 7
-308 51
-7 -51 308
-309 -51
-309 -249
51 249 309
-310 -308
-310 -309
308 309 310
-311 8
-311 51
-8 -51 311
-312 -51
-312 -252
51 252 312
-313 -311
-313 -312
311 312 313
-314 9
-314 51
-9 -51 314
-315 -51
-315 -255
51 255 315
-316 -314
-316 -315
314 315 316
-317 10
-317 51
-10 -51 317
-318 -51
-318 -258
51 258 318
-319 -317
-319 -318
317 318 319
-320 11
-320 51
-11 -51 320
-321 -51
-321 -261
51 261 321
-322 -320
-322 -321
320 321 322
-323 -51
-323 -264
51 264 323
-324 -51
-324 -267
51 267 324
-325 -51
-325 -270
51 270 325
-326 -51
-326 -273
51 273 326
-327 -51
-327 -276
51 276 327
-328 -51
-328 -279
51 279 328
-329 -51
-329 -282
51 282 329
-330 -51
-330 -285
51 285 330
-331 -51
-331 -288
51 288 331
-332 -51
-332 289
51 -289 332
-333 -32
-333 231
32 -231 333
-334 12
-334 -333
-12 333 334
334
